hw2/mc/mc2.out
unsat
(error "line 79 column 10: model is not available")
